c Sudoku solution
p cnf 729 0
121 0
163 0
187 0
238 0
282 0
294 0
313 0
273 0
359 0
367 0
375 0
435 0
461 0
472 0
534 0
549 0
553 0
576 0
652 0
712 0
522 0
828 0
846 0
927 0
217 0
229 0
115 0
324 0
725 0
597 0
637 0
955 0
962 0
892 0
885 0
833 0
565 0
245 0
266 0
251 0
456 0
447 0
484 0
423 0
626 0
916 0
814 0
871 0
777 0
857 0
869 0
974 0
695 0
683 0
581 0
518 0
611 0
419 0
498 0
679 0
178 0
199 0
136 0
332 0
142 0
348 0
154 0
644 0
668 0
758 0
764 0
386 0
391 0
789 0
796 0
993 0
988 0
743 0
941 0
731 0
939 0
